
--- Job PayAsClear.gms Start 12/04/25 11:55:55 51.4.0 91cb996b WEX-WEI x86 64bit/MS Windows
--- Applying:
    C:\GAMS\51\gmsprmNT.txt
--- GAMS Parameters defined
    Input "C:\Users\pm.deoliveiradejes\Dropbox\Curso Operador Honduras\ME\M3_Taller_de_Micro\Auctions\PayAsClear.gms"
    PageSize 0
    ScrDir "C:\Users\pm.deoliveiradejes\Dropbox\Curso Operador Honduras\ME\M3_Taller_de_Micro\Auctions\225a\"
    SysDir C:\GAMS\51\
    LogOption 3
    AppendLog 1
    ErrMsg 1
    ErrorLog 99
    IDE 1
    LstTitleLeftAligned 1
Licensee: GAMS Demo, for EULA and demo limitations see   G250826+0003Cc-GEN
          https://www.gams.com/latest/docs/UG%5FLicense.html         DC0000
          C:\GAMS\51\gamslice.txt
          v:2                                                              
          Demo license for demonstration and instructional purposes only
System information: 4 physical cores and 8 Gb physical memory detected
GAMS 51.4.0   Copyright (C) 1987-2025 GAMS Development. All rights reserved
--- Starting compilation
--- PayAsClear.gms(54) 3 Mb
--- Starting execution: elapsed 0:00:00.032
--- PayAsClear.gms(34) 4 Mb
--- Generating LP model Auction
--- PayAsClear.gms(54) 4 Mb
---   4 rows  3 columns  7 non-zeroes
--- Range statistics (absolute non-zero finite values)
--- RHS       [min, max] : [ 1.000E+02, 1.000E+02] - Zero values observed as well
--- Bound     [min, max] : [        NA,        NA] - Zero values observed as well
--- Matrix    [min, max] : [ 1.000E+00, 8.000E+01]
--- Executing CPLEX (Solvelink=2): elapsed 0:00:00.043

IBM ILOG CPLEX   51.4.0 91cb996b Nov 10, 2025          WEI x86 64bit/MS Window

*** This solver runs with a demo license. No commercial use.
--- GMO setup time: 0.00s
--- GMO memory 0.50 Mb (peak 0.50 Mb)
--- Dictionary memory 0.00 Mb
--- Cplex 22.1.2.0 link memory 0.00 Mb (peak 0.00 Mb)
--- Starting Cplex

Version identifier: 22.1.2.0 | 2024-11-25 | 0edbb82fd
CPXPARAM_Advance                                 0
CPXPARAM_Simplex_Display                         2
CPXPARAM_MIP_Display                             4
CPXPARAM_MIP_Pool_Capacity                       0
CPXPARAM_MIP_Tolerances_AbsMIPGap                0
Tried aggregator 1 time.
LP Presolve eliminated 3 rows and 3 columns.
All rows and columns eliminated.
Presolve time = 0.00 sec. (0.00 ticks)

--- LP status (1): optimal.
--- Cplex Time: 0.00sec (det. 0.00 ticks)


Optimal solution found
Objective:         2000.000000

--- Reading solution for model Auction
*** Status: Normal completion
--- Job PayAsClear.gms Stop 12/04/25 11:55:55 elapsed 0:00:00.182
Cannot delete file: 225a\gamsmatr.dat
Cannot delete directory: 225a
